
Gurobi 7.0.1 (linux64, Python) logging started Tue Nov 22 23:19:48 2016


Gurobi 7.0.1 (linux64, Python) logging started Tue Nov 22 23:20:57 2016


Gurobi 7.0.1 (linux64, Python) logging started Tue Nov 22 23:21:17 2016


Gurobi 7.0.1 (linux64, Python) logging started Tue Nov 22 23:23:05 2016


Gurobi 7.0.1 (linux64, Python) logging started Tue Nov 22 23:23:22 2016


Gurobi 7.0.1 (linux64, Python) logging started Tue Nov 22 23:25:51 2016


Gurobi 7.0.1 (linux64, Python) logging started Tue Nov 22 23:26:10 2016


Gurobi 7.0.1 (linux64, Python) logging started Tue Nov 22 23:27:22 2016

Optimize a model with 157 rows, 6106 columns and 12212 nonzeros
Variable types: 0 continuous, 6106 integer (6106 binary)
Coefficient statistics:
  Matrix range     [1e+00, 1e+00]
  Objective range  [1e+00, 7e+01]
  Bounds range     [1e+00, 1e+00]
  RHS range        [1e+00, 1e+00]
Presolve time: 0.06s
Presolved: 157 rows, 6106 columns, 12212 nonzeros
Variable types: 0 continuous, 6106 integer (6106 binary)

Root relaxation: infeasible, 412 iterations, 0.05 seconds

    Nodes    |    Current Node    |     Objective Bounds      |     Work
 Expl Unexpl |  Obj  Depth IntInf | Incumbent    BestBd   Gap | It/Node Time

     0     0 infeasible    0               - infeasible      -     -    0s

Explored 0 nodes (412 simplex iterations) in 0.20 seconds
Thread count was 4 (of 4 available processors)

Solution count 0
Pool objective bound 1e+100

Model is infeasible
Best objective -, best bound -, gap -

Gurobi 7.0.1 (linux64, Python) logging started Tue Nov 22 23:28:49 2016

Optimize a model with 157 rows, 6106 columns and 12212 nonzeros
Variable types: 0 continuous, 6106 integer (6106 binary)
Coefficient statistics:
  Matrix range     [1e+00, 1e+00]
  Objective range  [1e+00, 7e+01]
  Bounds range     [1e+00, 1e+00]
  RHS range        [1e+00, 1e+00]
Presolve time: 0.02s
Presolved: 157 rows, 6106 columns, 12212 nonzeros
Variable types: 0 continuous, 6106 integer (6106 binary)

Root relaxation: infeasible, 412 iterations, 0.01 seconds

    Nodes    |    Current Node    |     Objective Bounds      |     Work
 Expl Unexpl |  Obj  Depth IntInf | Incumbent    BestBd   Gap | It/Node Time

     0     0 infeasible    0               - infeasible      -     -    0s

Explored 0 nodes (412 simplex iterations) in 0.04 seconds
Thread count was 4 (of 4 available processors)

Solution count 0
Pool objective bound 1e+100

Model is infeasible
Best objective -, best bound -, gap -

Gurobi 7.0.1 (linux64, Python) logging started Tue Nov 22 23:29:15 2016

Optimize a model with 157 rows, 6106 columns and 12212 nonzeros
Variable types: 0 continuous, 6106 integer (6106 binary)
Coefficient statistics:
  Matrix range     [1e+00, 1e+00]
  Objective range  [1e+00, 7e+01]
  Bounds range     [1e+00, 1e+00]
  RHS range        [1e+00, 1e+00]
Presolve time: 0.02s
Presolved: 157 rows, 6106 columns, 12212 nonzeros
Variable types: 0 continuous, 6106 integer (6106 binary)

Root relaxation: infeasible, 412 iterations, 0.01 seconds

    Nodes    |    Current Node    |     Objective Bounds      |     Work
 Expl Unexpl |  Obj  Depth IntInf | Incumbent    BestBd   Gap | It/Node Time

     0     0 infeasible    0               - infeasible      -     -    0s

Explored 0 nodes (412 simplex iterations) in 0.04 seconds
Thread count was 4 (of 4 available processors)

Solution count 0
Pool objective bound 1e+100

Model is infeasible
Best objective -, best bound -, gap -

Gurobi 7.0.1 (linux64, Python) logging started Tue Nov 22 23:31:39 2016

Optimize a model with 173 rows, 7482 columns and 14964 nonzeros
Variable types: 0 continuous, 7482 integer (7482 binary)
Coefficient statistics:
  Matrix range     [1e+00, 1e+00]
  Objective range  [1e+00, 7e+01]
  Bounds range     [1e+00, 1e+00]
  RHS range        [1e+00, 1e+00]
Presolve time: 0.02s
Presolved: 173 rows, 7482 columns, 14964 nonzeros
Variable types: 0 continuous, 7482 integer (7482 binary)

Root relaxation: infeasible, 410 iterations, 0.01 seconds

    Nodes    |    Current Node    |     Objective Bounds      |     Work
 Expl Unexpl |  Obj  Depth IntInf | Incumbent    BestBd   Gap | It/Node Time

     0     0 infeasible    0               - infeasible      -     -    0s

Explored 0 nodes (410 simplex iterations) in 0.04 seconds
Thread count was 4 (of 4 available processors)

Solution count 0
Pool objective bound 1e+100

Model is infeasible
Best objective -, best bound -, gap -

Gurobi 7.0.1 (linux64, Python) logging started Tue Nov 22 23:33:56 2016

Optimize a model with 173 rows, 7482 columns and 14964 nonzeros
Variable types: 0 continuous, 7482 integer (7482 binary)
Coefficient statistics:
  Matrix range     [1e+00, 1e+00]
  Objective range  [1e+00, 7e+01]
  Bounds range     [1e+00, 1e+00]
  RHS range        [1e+00, 1e+00]
Presolve time: 0.02s
Presolved: 173 rows, 7482 columns, 14964 nonzeros
Variable types: 0 continuous, 7482 integer (7482 binary)

Root relaxation: infeasible, 410 iterations, 0.01 seconds

    Nodes    |    Current Node    |     Objective Bounds      |     Work
 Expl Unexpl |  Obj  Depth IntInf | Incumbent    BestBd   Gap | It/Node Time

     0     0 infeasible    0               - infeasible      -     -    0s

Explored 0 nodes (410 simplex iterations) in 0.04 seconds
Thread count was 4 (of 4 available processors)

Solution count 0
Pool objective bound 1e+100

Model is infeasible
Best objective -, best bound -, gap -

Gurobi 7.0.1 (linux64, Python) logging started Tue Nov 22 23:36:24 2016

Optimize a model with 173 rows, 7482 columns and 14964 nonzeros
Variable types: 0 continuous, 7482 integer (7482 binary)
Coefficient statistics:
  Matrix range     [1e+00, 1e+00]
  Objective range  [1e+00, 7e+01]
  Bounds range     [1e+00, 1e+00]
  RHS range        [1e+00, 1e+00]
Presolve time: 0.02s
Presolved: 173 rows, 7482 columns, 14964 nonzeros
Variable types: 0 continuous, 7482 integer (7482 binary)

Root relaxation: infeasible, 410 iterations, 0.01 seconds

    Nodes    |    Current Node    |     Objective Bounds      |     Work
 Expl Unexpl |  Obj  Depth IntInf | Incumbent    BestBd   Gap | It/Node Time

     0     0 infeasible    0               - infeasible      -     -    0s

Explored 0 nodes (410 simplex iterations) in 0.04 seconds
Thread count was 4 (of 4 available processors)

Solution count 0
Pool objective bound 1e+100

Model is infeasible
Best objective -, best bound -, gap -

Gurobi 7.0.1 (linux64, Python) logging started Tue Nov 22 23:39:19 2016

Optimize a model with 173 rows, 7482 columns and 14964 nonzeros
Variable types: 0 continuous, 7482 integer (7482 binary)
Coefficient statistics:
  Matrix range     [1e+00, 1e+00]
  Objective range  [1e+00, 7e+01]
  Bounds range     [1e+00, 1e+00]
  RHS range        [1e+00, 1e+00]
Presolve time: 0.02s
Presolved: 173 rows, 7482 columns, 14964 nonzeros
Variable types: 0 continuous, 7482 integer (7482 binary)

Root relaxation: infeasible, 410 iterations, 0.01 seconds

    Nodes    |    Current Node    |     Objective Bounds      |     Work
 Expl Unexpl |  Obj  Depth IntInf | Incumbent    BestBd   Gap | It/Node Time

     0     0 infeasible    0               - infeasible      -     -    0s

Explored 0 nodes (410 simplex iterations) in 0.04 seconds
Thread count was 4 (of 4 available processors)

Solution count 0
Pool objective bound 1e+100

Model is infeasible
Best objective -, best bound -, gap -

Gurobi 7.0.1 (linux64, Python) logging started Tue Nov 22 23:44:41 2016

Optimize a model with 172 rows, 7396 columns and 14792 nonzeros
Variable types: 0 continuous, 7396 integer (7396 binary)
Coefficient statistics:
  Matrix range     [1e+00, 1e+00]
  Objective range  [1e+00, 7e+01]
  Bounds range     [1e+00, 1e+00]
  RHS range        [1e+00, 1e+00]
Found heuristic solution: objective 3580
Presolve time: 0.02s
Presolved: 172 rows, 7396 columns, 14792 nonzeros
Variable types: 0 continuous, 7396 integer (7396 binary)

Root relaxation: objective 1.412500e+03, 492 iterations, 0.01 seconds

    Nodes    |    Current Node    |     Objective Bounds      |     Work
 Expl Unexpl |  Obj  Depth IntInf | Incumbent    BestBd   Gap | It/Node Time

*    0     0               0    1412.5000000 1412.50000  0.00%     -    0s

Explored 0 nodes (492 simplex iterations) in 0.03 seconds
Thread count was 4 (of 4 available processors)

Solution count 2: 1412.5 3580 
Pool objective bound 1412.5

Optimal solution found (tolerance 1.00e-04)
Best objective 1.412500000000e+03, best bound 1.412500000000e+03, gap 0.0000%

Gurobi 7.0.1 (linux64, Python) logging started Tue Nov 22 23:45:21 2016

Optimize a model with 172 rows, 7396 columns and 14792 nonzeros
Variable types: 0 continuous, 7396 integer (7396 binary)
Coefficient statistics:
  Matrix range     [1e+00, 1e+00]
  Objective range  [1e+00, 7e+01]
  Bounds range     [1e+00, 1e+00]
  RHS range        [1e+00, 1e+00]
Found heuristic solution: objective 3580
Presolve time: 0.02s
Presolved: 172 rows, 7396 columns, 14792 nonzeros
Variable types: 0 continuous, 7396 integer (7396 binary)

Root relaxation: objective 1.412500e+03, 492 iterations, 0.01 seconds

    Nodes    |    Current Node    |     Objective Bounds      |     Work
 Expl Unexpl |  Obj  Depth IntInf | Incumbent    BestBd   Gap | It/Node Time

*    0     0               0    1412.5000000 1412.50000  0.00%     -    0s

Explored 0 nodes (492 simplex iterations) in 0.04 seconds
Thread count was 4 (of 4 available processors)

Solution count 2: 1412.5 3580 
Pool objective bound 1412.5

Optimal solution found (tolerance 1.00e-04)
Best objective 1.412500000000e+03, best bound 1.412500000000e+03, gap 0.0000%

Gurobi 7.0.1 (linux64, Python) logging started Tue Nov 22 23:45:32 2016

Optimize a model with 172 rows, 7396 columns and 14792 nonzeros
Variable types: 0 continuous, 7396 integer (7396 binary)
Coefficient statistics:
  Matrix range     [1e+00, 1e+00]
  Objective range  [1e+00, 7e+01]
  Bounds range     [1e+00, 1e+00]
  RHS range        [1e+00, 1e+00]
Found heuristic solution: objective 3580
Presolve time: 0.02s
Presolved: 172 rows, 7396 columns, 14792 nonzeros
Variable types: 0 continuous, 7396 integer (7396 binary)

Root relaxation: objective 1.412500e+03, 492 iterations, 0.01 seconds

    Nodes    |    Current Node    |     Objective Bounds      |     Work
 Expl Unexpl |  Obj  Depth IntInf | Incumbent    BestBd   Gap | It/Node Time

*    0     0               0    1412.5000000 1412.50000  0.00%     -    0s

Explored 0 nodes (492 simplex iterations) in 0.04 seconds
Thread count was 4 (of 4 available processors)

Solution count 2: 1412.5 3580 
Pool objective bound 1412.5

Optimal solution found (tolerance 1.00e-04)
Best objective 1.412500000000e+03, best bound 1.412500000000e+03, gap 0.0000%

Gurobi 7.0.1 (linux64, Python) logging started Tue Nov 22 23:53:19 2016

Optimize a model with 172 rows, 7396 columns and 14792 nonzeros
Variable types: 0 continuous, 7396 integer (7396 binary)
Coefficient statistics:
  Matrix range     [1e+00, 1e+00]
  Objective range  [1e+00, 7e+01]
  Bounds range     [1e+00, 1e+00]
  RHS range        [1e+00, 1e+00]
Found heuristic solution: objective 3580
Presolve time: 0.02s
Presolved: 172 rows, 7396 columns, 14792 nonzeros
Variable types: 0 continuous, 7396 integer (7396 binary)

Root relaxation: objective 1.412500e+03, 492 iterations, 0.01 seconds

    Nodes    |    Current Node    |     Objective Bounds      |     Work
 Expl Unexpl |  Obj  Depth IntInf | Incumbent    BestBd   Gap | It/Node Time

*    0     0               0    1412.5000000 1412.50000  0.00%     -    0s

Explored 0 nodes (492 simplex iterations) in 0.04 seconds
Thread count was 4 (of 4 available processors)

Solution count 2: 1412.5 3580 
Pool objective bound 1412.5

Optimal solution found (tolerance 1.00e-04)
Best objective 1.412500000000e+03, best bound 1.412500000000e+03, gap 0.0000%

Gurobi 7.0.1 (linux64, Python) logging started Tue Nov 22 23:53:49 2016

Optimize a model with 172 rows, 7396 columns and 14792 nonzeros
Variable types: 0 continuous, 7396 integer (7396 binary)
Coefficient statistics:
  Matrix range     [1e+00, 1e+00]
  Objective range  [1e+00, 7e+01]
  Bounds range     [1e+00, 1e+00]
  RHS range        [1e+00, 1e+00]
Found heuristic solution: objective 3580
Presolve time: 0.02s
Presolved: 172 rows, 7396 columns, 14792 nonzeros
Variable types: 0 continuous, 7396 integer (7396 binary)

Root relaxation: objective 1.412500e+03, 492 iterations, 0.01 seconds

    Nodes    |    Current Node    |     Objective Bounds      |     Work
 Expl Unexpl |  Obj  Depth IntInf | Incumbent    BestBd   Gap | It/Node Time

*    0     0               0    1412.5000000 1412.50000  0.00%     -    0s

Explored 0 nodes (492 simplex iterations) in 0.03 seconds
Thread count was 4 (of 4 available processors)

Solution count 2: 1412.5 3580 
Pool objective bound 1412.5

Optimal solution found (tolerance 1.00e-04)
Best objective 1.412500000000e+03, best bound 1.412500000000e+03, gap 0.0000%

Gurobi 7.0.1 (linux64, Python) logging started Tue Nov 22 23:54:21 2016

Optimize a model with 172 rows, 7396 columns and 14792 nonzeros
Variable types: 0 continuous, 7396 integer (7396 binary)
Coefficient statistics:
  Matrix range     [1e+00, 1e+00]
  Objective range  [1e+00, 7e+01]
  Bounds range     [1e+00, 1e+00]
  RHS range        [1e+00, 1e+00]
Found heuristic solution: objective 3580
Presolve time: 0.02s
Presolved: 172 rows, 7396 columns, 14792 nonzeros
Variable types: 0 continuous, 7396 integer (7396 binary)

Root relaxation: objective 1.412500e+03, 492 iterations, 0.01 seconds

    Nodes    |    Current Node    |     Objective Bounds      |     Work
 Expl Unexpl |  Obj  Depth IntInf | Incumbent    BestBd   Gap | It/Node Time

*    0     0               0    1412.5000000 1412.50000  0.00%     -    0s

Explored 0 nodes (492 simplex iterations) in 0.04 seconds
Thread count was 4 (of 4 available processors)

Solution count 2: 1412.5 3580 
Pool objective bound 1412.5

Optimal solution found (tolerance 1.00e-04)
Best objective 1.412500000000e+03, best bound 1.412500000000e+03, gap 0.0000%

Gurobi 7.0.1 (linux64, Python) logging started Tue Nov 22 23:55:01 2016

Optimize a model with 172 rows, 7396 columns and 14792 nonzeros
Variable types: 0 continuous, 7396 integer (7396 binary)
Coefficient statistics:
  Matrix range     [1e+00, 1e+00]
  Objective range  [1e+00, 7e+01]
  Bounds range     [1e+00, 1e+00]
  RHS range        [1e+00, 1e+00]
Found heuristic solution: objective 3580
Presolve time: 0.02s
Presolved: 172 rows, 7396 columns, 14792 nonzeros
Variable types: 0 continuous, 7396 integer (7396 binary)

Root relaxation: objective 1.412500e+03, 492 iterations, 0.01 seconds

    Nodes    |    Current Node    |     Objective Bounds      |     Work
 Expl Unexpl |  Obj  Depth IntInf | Incumbent    BestBd   Gap | It/Node Time

*    0     0               0    1412.5000000 1412.50000  0.00%     -    0s

Explored 0 nodes (492 simplex iterations) in 0.04 seconds
Thread count was 4 (of 4 available processors)

Solution count 2: 1412.5 3580 
Pool objective bound 1412.5

Optimal solution found (tolerance 1.00e-04)
Best objective 1.412500000000e+03, best bound 1.412500000000e+03, gap 0.0000%

Gurobi 7.0.1 (linux64, Python) logging started Tue Nov 22 23:58:47 2016

Optimize a model with 172 rows, 7396 columns and 14792 nonzeros
Variable types: 0 continuous, 7396 integer (7396 binary)
Coefficient statistics:
  Matrix range     [1e+00, 1e+00]
  Objective range  [1e+00, 7e+01]
  Bounds range     [1e+00, 1e+00]
  RHS range        [1e+00, 1e+00]
Found heuristic solution: objective 3580
Presolve time: 0.02s
Presolved: 172 rows, 7396 columns, 14792 nonzeros
Variable types: 0 continuous, 7396 integer (7396 binary)

Root relaxation: objective 1.412500e+03, 492 iterations, 0.01 seconds

    Nodes    |    Current Node    |     Objective Bounds      |     Work
 Expl Unexpl |  Obj  Depth IntInf | Incumbent    BestBd   Gap | It/Node Time

*    0     0               0    1412.5000000 1412.50000  0.00%     -    0s

Explored 0 nodes (492 simplex iterations) in 0.04 seconds
Thread count was 4 (of 4 available processors)

Solution count 2: 1412.5 3580 
Pool objective bound 1412.5

Optimal solution found (tolerance 1.00e-04)
Best objective 1.412500000000e+03, best bound 1.412500000000e+03, gap 0.0000%

Gurobi 7.0.1 (linux64, Python) logging started Tue Nov 22 23:59:23 2016

Optimize a model with 172 rows, 7396 columns and 14792 nonzeros
Variable types: 0 continuous, 7396 integer (7396 binary)
Coefficient statistics:
  Matrix range     [1e+00, 1e+00]
  Objective range  [1e+00, 7e+01]
  Bounds range     [1e+00, 1e+00]
  RHS range        [1e+00, 1e+00]
Found heuristic solution: objective 3580
Presolve time: 0.02s
Presolved: 172 rows, 7396 columns, 14792 nonzeros
Variable types: 0 continuous, 7396 integer (7396 binary)

Root relaxation: objective 1.412500e+03, 492 iterations, 0.01 seconds

    Nodes    |    Current Node    |     Objective Bounds      |     Work
 Expl Unexpl |  Obj  Depth IntInf | Incumbent    BestBd   Gap | It/Node Time

*    0     0               0    1412.5000000 1412.50000  0.00%     -    0s

Explored 0 nodes (492 simplex iterations) in 0.03 seconds
Thread count was 4 (of 4 available processors)

Solution count 2: 1412.5 3580 
Pool objective bound 1412.5

Optimal solution found (tolerance 1.00e-04)
Best objective 1.412500000000e+03, best bound 1.412500000000e+03, gap 0.0000%

Gurobi 7.0.1 (linux64, Python) logging started Wed Nov 23 00:00:01 2016

Optimize a model with 172 rows, 7396 columns and 14792 nonzeros
Variable types: 0 continuous, 7396 integer (7396 binary)
Coefficient statistics:
  Matrix range     [1e+00, 1e+00]
  Objective range  [1e+00, 7e+01]
  Bounds range     [1e+00, 1e+00]
  RHS range        [1e+00, 1e+00]
Found heuristic solution: objective 3580
Presolve time: 0.02s
Presolved: 172 rows, 7396 columns, 14792 nonzeros
Variable types: 0 continuous, 7396 integer (7396 binary)

Root relaxation: objective 1.412500e+03, 492 iterations, 0.01 seconds

    Nodes    |    Current Node    |     Objective Bounds      |     Work
 Expl Unexpl |  Obj  Depth IntInf | Incumbent    BestBd   Gap | It/Node Time

*    0     0               0    1412.5000000 1412.50000  0.00%     -    0s

Explored 0 nodes (492 simplex iterations) in 0.03 seconds
Thread count was 4 (of 4 available processors)

Solution count 2: 1412.5 3580 
Pool objective bound 1412.5

Optimal solution found (tolerance 1.00e-04)
Best objective 1.412500000000e+03, best bound 1.412500000000e+03, gap 0.0000%

Gurobi 7.0.1 (linux64, Python) logging started Wed Nov 23 00:03:43 2016

Warning: variables 0 and 1 have the same name "O074A074"
Warning: to let Gurobi read it back, use rlp format
Optimize a model with 172 rows, 7396 columns and 14792 nonzeros
Variable types: 0 continuous, 7396 integer (7396 binary)
Coefficient statistics:
  Matrix range     [1e+00, 1e+00]
  Objective range  [1e+00, 7e+01]
  Bounds range     [1e+00, 1e+00]
  RHS range        [1e+00, 1e+00]
Found heuristic solution: objective 3580
Presolve time: 0.02s
Presolved: 172 rows, 7396 columns, 14792 nonzeros
Variable types: 0 continuous, 7396 integer (7396 binary)

Root relaxation: objective 1.412500e+03, 492 iterations, 0.01 seconds

    Nodes    |    Current Node    |     Objective Bounds      |     Work
 Expl Unexpl |  Obj  Depth IntInf | Incumbent    BestBd   Gap | It/Node Time

*    0     0               0    1412.5000000 1412.50000  0.00%     -    0s

Explored 0 nodes (492 simplex iterations) in 0.03 seconds
Thread count was 4 (of 4 available processors)

Solution count 2: 1412.5 3580 
Pool objective bound 1412.5

Optimal solution found (tolerance 1.00e-04)
Best objective 1.412500000000e+03, best bound 1.412500000000e+03, gap 0.0000%

Gurobi 7.0.1 (linux64, Python) logging started Wed Nov 23 00:06:08 2016

Optimize a model with 172 rows, 7396 columns and 14792 nonzeros
Variable types: 0 continuous, 7396 integer (7396 binary)
Coefficient statistics:
  Matrix range     [1e+00, 1e+00]
  Objective range  [1e+00, 7e+01]
  Bounds range     [1e+00, 1e+00]
  RHS range        [1e+00, 1e+00]
Found heuristic solution: objective 3580
Presolve time: 0.02s
Presolved: 172 rows, 7396 columns, 14792 nonzeros
Variable types: 0 continuous, 7396 integer (7396 binary)

Root relaxation: objective 1.412500e+03, 492 iterations, 0.01 seconds

    Nodes    |    Current Node    |     Objective Bounds      |     Work
 Expl Unexpl |  Obj  Depth IntInf | Incumbent    BestBd   Gap | It/Node Time

*    0     0               0    1412.5000000 1412.50000  0.00%     -    0s

Explored 0 nodes (492 simplex iterations) in 0.04 seconds
Thread count was 4 (of 4 available processors)

Solution count 2: 1412.5 3580 
Pool objective bound 1412.5

Optimal solution found (tolerance 1.00e-04)
Best objective 1.412500000000e+03, best bound 1.412500000000e+03, gap 0.0000%

Gurobi 7.0.1 (linux64, Python) logging started Wed Nov 23 00:07:21 2016

Optimize a model with 172 rows, 7396 columns and 14792 nonzeros
Variable types: 0 continuous, 7396 integer (7396 binary)
Coefficient statistics:
  Matrix range     [1e+00, 1e+00]
  Objective range  [1e+00, 7e+01]
  Bounds range     [1e+00, 1e+00]
  RHS range        [1e+00, 1e+00]
Found heuristic solution: objective 3580
Presolve time: 0.02s
Presolved: 172 rows, 7396 columns, 14792 nonzeros
Variable types: 0 continuous, 7396 integer (7396 binary)

Root relaxation: objective 1.412500e+03, 492 iterations, 0.01 seconds

    Nodes    |    Current Node    |     Objective Bounds      |     Work
 Expl Unexpl |  Obj  Depth IntInf | Incumbent    BestBd   Gap | It/Node Time

*    0     0               0    1412.5000000 1412.50000  0.00%     -    0s

Explored 0 nodes (492 simplex iterations) in 0.03 seconds
Thread count was 4 (of 4 available processors)

Solution count 2: 1412.5 3580 
Pool objective bound 1412.5

Optimal solution found (tolerance 1.00e-04)
Best objective 1.412500000000e+03, best bound 1.412500000000e+03, gap 0.0000%

Gurobi 7.0.1 (linux64, Python) logging started Wed Nov 23 00:10:48 2016

Optimize a model with 172 rows, 7396 columns and 14792 nonzeros
Variable types: 0 continuous, 7396 integer (7396 binary)
Coefficient statistics:
  Matrix range     [1e+00, 1e+00]
  Objective range  [1e+00, 7e+01]
  Bounds range     [1e+00, 1e+00]
  RHS range        [1e+00, 1e+00]
Found heuristic solution: objective 3580
Presolve time: 0.02s
Presolved: 172 rows, 7396 columns, 14792 nonzeros
Variable types: 0 continuous, 7396 integer (7396 binary)

Root relaxation: objective 1.412500e+03, 492 iterations, 0.01 seconds

    Nodes    |    Current Node    |     Objective Bounds      |     Work
 Expl Unexpl |  Obj  Depth IntInf | Incumbent    BestBd   Gap | It/Node Time

*    0     0               0    1412.5000000 1412.50000  0.00%     -    0s

Explored 0 nodes (492 simplex iterations) in 0.04 seconds
Thread count was 4 (of 4 available processors)

Solution count 2: 1412.5 3580 
Pool objective bound 1412.5

Optimal solution found (tolerance 1.00e-04)
Best objective 1.412500000000e+03, best bound 1.412500000000e+03, gap 0.0000%
